
Gurobi 10.0.1 (win64) logging started Tue May  2 12:29:44 2023

Set parameter LogFile to value "logFiles/N-1L-A/N-1L-16U-18F-23V-180D-basic.log"
Gurobi Optimizer version 10.0.1 build v10.0.1rc0 (win64)

CPU model: Intel(R) Core(TM) i7-10700 CPU @ 2.90GHz, instruction set [SSE2|AVX|AVX2]
Thread count: 8 physical cores, 16 logical processors, using up to 16 threads

Optimize a model with 140016 rows, 1722525 columns and 7510448 nonzeros
Model fingerprint: 0xe969de20
Variable types: 4758 continuous, 1717767 integer (1717767 binary)
Coefficient statistics:
  Matrix range     [1e+00, 2e+05]
  Objective range  [4e+01, 3e+07]
  Bounds range     [1e+00, 1e+00]
  RHS range        [1e+00, 2e+06]
Presolve removed 69969 rows and 70029 columns (presolve time = 5s) ...
Presolve removed 69969 rows and 70029 columns (presolve time = 10s) ...
Presolve removed 70077 rows and 70269 columns
Presolve time: 13.64s
Presolved: 69939 rows, 1652256 columns, 6412125 nonzeros
Variable types: 3143 continuous, 1649113 integer (1649113 binary)
Deterministic concurrent LP optimizer: primal simplex, dual simplex, and barrier
Showing barrier log only...

Root barrier log...

Ordering time: 0.93s

Barrier statistics:
 AA' NZ     : 3.359e+06
 Factor NZ  : 5.810e+06 (roughly 700 MB of memory)
 Factor Ops : 2.110e+09 (less than 1 second per iteration)
 Threads    : 5

                  Objective                Residual
Iter       Primal          Dual         Primal    Dual     Compl     Time
   0  -5.40257561e+16  6.46652844e+14  6.05e+09 5.25e+04  2.39e+11    27s
   1  -8.97691234e+15  6.41539184e+14  1.01e+09 1.26e+05  4.02e+10    28s
   2  -1.43776142e+15  5.85157732e+14  1.61e+08 3.26e+03  6.59e+09    29s
   3  -7.28413105e+13  4.09010324e+14  8.18e+06 1.86e-09  4.31e+08    31s
   4  -2.32147399e+13  8.44856332e+13  2.61e+06 6.29e-08  1.13e+08    32s
   5  -1.48661899e+12  5.58804648e+13  1.68e+05 1.03e-07  2.26e+07    33s
   6  -8.21068147e+11  4.44384855e+13  9.38e+04 1.01e-07  1.67e+07    34s
   7  -3.85296001e+11  3.73453435e+13  4.50e+04 9.90e-08  1.28e+07    35s
   8  -2.10081920e+11  3.35391774e+13  2.54e+04 1.23e-07  1.10e+07    36s
   9  -8.49827879e+10  1.93698631e+13  1.14e+04 3.63e-08  6.25e+06    37s
  10   6.99358316e+09  1.13249543e+13  1.02e+03 2.54e-08  3.45e+06    39s
  11   1.33377581e+10  3.89506420e+12  3.07e+02 3.35e-08  1.18e+06    40s
  12   1.42944939e+10  3.50297979e+12  2.00e+02 3.82e-08  1.06e+06    41s
  13   1.46565938e+10  3.14494787e+12  1.60e+02 2.89e-08  9.51e+05    42s
  14   1.50017354e+10  2.46923467e+12  1.22e+02 1.65e-08  7.46e+05    43s
  15   1.54008629e+10  1.63896933e+12  7.76e+01 2.47e-08  4.94e+05    44s
  16   1.55637129e+10  1.03565654e+12  5.99e+01 4.87e-08  3.13e+05    45s
  17   1.57175763e+10  8.24319505e+11  4.35e+01 5.97e-08  2.48e+05    46s
  18   1.57470009e+10  7.98342495e+11  4.05e+01 1.13e-07  2.40e+05    47s
  19   1.58335158e+10  6.55724720e+11  3.17e+01 7.76e-08  1.96e+05    49s
  20   1.58635965e+10  5.98527184e+11  2.87e+01 8.03e-08  1.79e+05    51s
  21   1.59270647e+10  4.12885153e+11  2.24e+01 7.96e-08  1.22e+05    53s
  22   1.59671652e+10  3.24160053e+11  1.86e+01 7.42e-08  9.50e+04    56s
  23   1.59963963e+10  2.45923302e+11  1.59e+01 1.19e-07  7.12e+04    58s
  24   1.60619152e+10  2.06938354e+11  9.81e+00 1.25e-07  5.88e+04    60s
  25   1.60882111e+10  1.63687140e+11  7.24e+00 1.39e-07  4.56e+04    63s
  26   1.61063928e+10  1.32748879e+11  5.28e+00 1.50e-07  3.60e+04    65s
  27   1.61317357e+10  1.11550933e+11  3.24e+00 1.58e-07  2.93e+04    68s
  28   1.61520267e+10  9.29022813e+10  1.91e+00 1.95e-07  2.35e+04    70s
  29   1.61608811e+10  6.30586001e+10  1.64e+00 2.64e-07  1.44e+04    73s
  30   1.61729167e+10  4.62924421e+10  1.03e+00 2.80e-07  9.22e+03    75s
  31   1.61842954e+10  3.76145965e+10  5.56e-01 2.50e-07  6.53e+03    78s
  32   1.61916991e+10  2.52141898e+10  3.10e-01 2.98e-07  2.75e+03    80s
  33   1.61962490e+10  1.98541015e+10  1.66e-01 3.50e-07  1.12e+03    82s
  34   1.61999020e+10  1.90987669e+10  1.15e-01 3.89e-07  8.83e+02    84s
  35   1.61999556e+10  1.82322708e+10  1.08e-01 4.89e-07  6.20e+02    86s
  36   1.62040054e+10  1.80877430e+10  5.11e-02 4.45e-07  5.72e+02    87s
  37   1.62062303e+10  1.73151427e+10  3.46e-02 4.88e-07  3.37e+02    88s
  38   1.62076234e+10  1.68918972e+10  2.63e-02 5.08e-07  2.08e+02    89s
  39   1.62089727e+10  1.68379397e+10  2.13e-02 5.98e-07  1.91e+02    90s
  40   1.62105505e+10  1.66615176e+10  1.66e-02 5.07e-07  1.37e+02    91s
  41   1.62121703e+10  1.65704628e+10  1.34e-02 5.53e-07  1.09e+02    92s
  42   1.62137108e+10  1.65016323e+10  1.18e-02 5.97e-07  8.78e+01    94s
  43   1.62147943e+10  1.64633261e+10  1.08e-02 6.18e-07  7.58e+01    95s
  44   1.62170011e+10  1.64186639e+10  8.68e-03 6.44e-07  6.15e+01    96s
  45   1.62175772e+10  1.64091596e+10  8.31e-03 7.13e-07  5.84e+01    97s
  46   1.62184299e+10  1.63729297e+10  7.59e-03 6.15e-07  4.72e+01    98s
  47   1.62201185e+10  1.63669268e+10  6.32e-03 7.69e-07  4.48e+01   100s
  48   1.62214128e+10  1.63642410e+10  5.46e-03 8.05e-07  4.35e+01   101s
  49   1.62218288e+10  1.63572525e+10  5.22e-03 9.12e-07  4.13e+01   102s
  50   1.62223551e+10  1.63549671e+10  4.96e-03 9.79e-07  4.04e+01   103s
  51   1.62227507e+10  1.63503812e+10  4.79e-03 9.50e-07  3.89e+01   104s
  52   1.62230967e+10  1.63462512e+10  4.63e-03 1.18e-06  3.75e+01   106s
  53   1.62237881e+10  1.63407431e+10  4.33e-03 1.11e-06  3.56e+01   107s
  54   1.62238606e+10  1.63351734e+10  4.30e-03 1.20e-06  3.39e+01   108s
  55   1.62247078e+10  1.63287415e+10  3.92e-03 9.83e-07  3.17e+01   109s
  56   1.62254470e+10  1.63250433e+10  3.66e-03 1.17e-06  3.04e+01   110s
  57   1.62255413e+10  1.63236052e+10  3.63e-03 1.20e-06  2.99e+01   111s
  58   1.62260704e+10  1.63226571e+10  3.43e-03 1.28e-06  2.94e+01   112s
  59   1.62264427e+10  1.63190704e+10  3.31e-03 1.28e-06  2.82e+01   113s
  60   1.62270096e+10  1.63154215e+10  3.11e-03 1.32e-06  2.69e+01   115s
  61   1.62276467e+10  1.63080333e+10  2.88e-03 1.18e-06  2.45e+01   116s
  62   1.62283916e+10  1.62934301e+10  2.65e-03 1.08e-06  1.98e+01   118s
  63   1.62296035e+10  1.62785775e+10  2.33e-03 8.72e-07  1.50e+01   120s
  64   1.62314324e+10  1.62772579e+10  1.83e-03 9.85e-07  1.40e+01   122s
  65   1.62327803e+10  1.62709966e+10  1.50e-03 8.93e-07  1.17e+01   124s
  66   1.62348743e+10  1.62650676e+10  1.01e-03 8.16e-07  9.20e+00   126s
  67   1.62357913e+10  1.62601711e+10  8.36e-04 8.71e-07  7.43e+00   128s
  68   1.62370457e+10  1.62568646e+10  6.16e-04 7.58e-07  6.04e+00   130s
  69   1.62381230e+10  1.62536803e+10  4.39e-04 1.06e-06  4.74e+00   132s
  70   1.62392079e+10  1.62507298e+10  2.71e-04 1.12e-06  3.50e+00   134s
  71   1.62398033e+10  1.62487025e+10  1.89e-04 1.01e-06  2.71e+00   136s
  72   1.62401555e+10  1.62457925e+10  1.39e-04 9.23e-07  1.72e+00   138s
  73   1.62404224e+10  1.62428448e+10  1.05e-04 1.11e-06  7.42e-01   139s
  74   1.62408209e+10  1.62425530e+10  5.58e-05 1.15e-06  5.29e-01   141s
  75   1.62409815e+10  1.62423875e+10  3.65e-05 1.08e-06  4.29e-01   143s
  76   1.62410192e+10  1.62417994e+10  3.20e-05 8.76e-07  2.39e-01   144s
  77   1.62410537e+10  1.62415284e+10  2.76e-05 1.06e-06  1.46e-01   145s
  78   1.62411689e+10  1.62414820e+10  1.40e-05 9.19e-07  9.61e-02   146s
  79   1.62412298e+10  1.62414347e+10  6.46e-06 9.52e-07  6.27e-02   148s
  80   1.62412428e+10  1.62414158e+10  5.00e-06 1.06e-06  5.28e-02   149s
  81   1.62412749e+10  1.62413474e+10  7.90e-06 8.59e-07  2.21e-02   150s
  82   1.62412826e+10  1.62412981e+10  2.70e-06 9.58e-07  4.76e-03   151s
  83   1.62412870e+10  1.62412940e+10  4.10e-07 1.04e-06  2.12e-03   153s
  84   1.62412877e+10  1.62412887e+10  6.11e-07 9.89e-07  2.95e-04   154s
  85   1.62412878e+10  1.62412879e+10  3.03e-07 1.14e-06  2.25e-05   156s
  86   1.62412878e+10  1.62412878e+10  1.00e-07 1.31e-06  1.39e-06   157s
  87   1.62412878e+10  1.62412878e+10  2.41e-08 9.66e-07  9.67e-09   159s

Barrier solved model in 87 iterations and 158.92 seconds (75.27 work units)
Optimal objective 1.62412878e+10


Root crossover log...

   53716 DPushes remaining with DInf 0.0000000e+00               159s
     218 DPushes remaining with DInf 0.0000000e+00               160s
       0 DPushes remaining with DInf 0.0000000e+00               164s

    4411 PPushes remaining with PInf 0.0000000e+00               164s
       0 PPushes remaining with PInf 0.0000000e+00               164s

  Push phase complete: Pinf 0.0000000e+00, Dinf 4.0931419e-07    164s


Root simplex log...

Iteration    Objective       Primal Inf.    Dual Inf.      Time
   58096    1.6241288e+10   0.000000e+00   0.000000e+00    164s
Concurrent spin time: 0.04s

Solved with barrier
   58096    1.6241288e+10   0.000000e+00   0.000000e+00    165s

Root relaxation: objective 1.624129e+10, 58096 iterations, 147.03 seconds (47.18 work units)
Total elapsed time = 170.64s

    Nodes    |    Current Node    |     Objective Bounds      |     Work
 Expl Unexpl |  Obj  Depth IntInf | Incumbent    BestBd   Gap | It/Node Time

     0     0 1.6241e+10    0  567          - 1.6241e+10      -     -  174s
     0     0 1.6241e+10    0  578          - 1.6241e+10      -     -  435s
     0     0 1.6241e+10    0  542          - 1.6241e+10      -     -  478s
     0     0 1.6241e+10    0  531          - 1.6241e+10      -     -  715s
H    0     0                    1.621877e+10 1.6241e+10  0.14%     -  802s
     0     0 1.6241e+10    0  522 1.6219e+10 1.6241e+10  0.14%     - 1127s
     0     0 1.6241e+10    0  598 1.6219e+10 1.6241e+10  0.14%     - 1279s
H    0     0                    1.623229e+10 1.6241e+10  0.06%     - 2088s
     0     0 1.6241e+10    0  560 1.6232e+10 1.6241e+10  0.06%     - 2161s
     0     0 1.6241e+10    0  552 1.6232e+10 1.6241e+10  0.06%     - 2176s
     0     0 1.6241e+10    0  684 1.6232e+10 1.6241e+10  0.05%     - 2286s
     0     0 1.6241e+10    0  664 1.6232e+10 1.6241e+10  0.05%     - 2584s
     0     0 1.6241e+10    0  659 1.6232e+10 1.6241e+10  0.05%     - 2614s
     0     0 1.6241e+10    0  688 1.6232e+10 1.6241e+10  0.05%     - 2672s
     0     0 1.6241e+10    0  673 1.6232e+10 1.6241e+10  0.05%     - 2737s
     0     0 1.6241e+10    0  718 1.6232e+10 1.6241e+10  0.05%     - 2778s
     0     0 1.6241e+10    0  680 1.6232e+10 1.6241e+10  0.05%     - 2836s
     0     2 1.6241e+10    0  667 1.6232e+10 1.6241e+10  0.05%     - 3011s
     1     4 1.6241e+10    1  664 1.6232e+10 1.6241e+10  0.05% 30729 3108s
     3     8 1.6241e+10    2  685 1.6232e+10 1.6241e+10  0.05% 10567 3604s
     7    16 1.6241e+10    3  718 1.6232e+10 1.6241e+10  0.05%  7056 4728s
    15    17 1.6241e+10    4  699 1.6232e+10 1.6241e+10  0.05% 36435 10800s

Cutting planes:
  Cover: 1
  Implied bound: 132
  MIR: 12
  Flow cover: 18
  Zero half: 5
  RLT: 107
  Relax-and-lift: 30

Explored 16 nodes (707780 simplex iterations) in 10801.40 seconds (6556.43 work units)
Thread count was 16 (of 16 available processors)

Solution count 2: 1.62323e+10 1.62188e+10 

Time limit reached
Best objective 1.623229318967e+10, best bound 1.624121289331e+10, gap 0.0550%
